500
400
320
319
319
318
317
317
317
317
316
316
316
315
312
311
310
310
310
309
309
309
308
307
307
304
304
303
303
302
302
301
300
300
299
299
299
298
298
298
298
298
296
296
295
295
294
294
293
291
290
290
289
289
288
288
287
286
285
284
284
283
283
282
281
281
281
280
280
280
279
277
276
276
276
275
275
275
273
273
271
271
271
271
270
269
269
269
267
267
267
267
266
266
266
265
265
264
264
264
263
263
262
261
261
261
260
260
260
260
259
258
258
258
257
257
255
254
253
253
253
252
252
252
251
251
250
248
248
244
243
243
242
242
242
242
241
241
239
239
236
235
235
235
235
235
234
234
234
233
233
232
232
232
231
231
231
230
230
230
229
229
228
227
227
227
226
226
226
225
224
224
224
223
223
222
222
221
221
220
219
219
218
218
217
216
215
214
213
212
210
210
209
209
208
208
208
208
208
208
205
205
205
205
205
204
203
203
203
202
202
201
201
201
200
200
199
197
196
196
195
195
193
193
191
191
191
189
189
189
189
187
187
187
186
185
185
184
184
183
183
182
182
182
181
181
181
181
181
181
181
180
180
179
179
178
178
178
178
177
175
174
174
174
174
174
173
173
172
172
172
172
170
169
169
169
168
167
167
167
166
166
165
164
164
163
163
163
163
162
162
162
162
162
162
162
162
161
160
160
160
160
159
158
157
156
156
154
154
152
152
151
150
150
150
150
148
147
147
147
147
146
146
146
144
144
142
142
142
142
141
140
140
140
138
137
137
136
136
134
134
133
132
132
132
131
130
130
130
129
128
127
126
126
125
125
125
124
124
122
121
121
121
119
119
119
119
118
116
116
114
114
114
113
113
112
112
112
111
111
111
111
111
109
109
109
109
109
108
108
107
107
106
106
105
103
102
101
100
100
99
99
99
98
97
97
94
93
93
93
92
92
91
91
91
91
91
91
90
89
88
87
86
86
85
84
83
83
82
82
80
80
80
80
79
78
77
77
76
76
75
73
73
72
70
70
69
68
68
68
67
67
66
66
66
65
64
63
63
62
60
60
60
59
59
59
58
58
58
58
57
57
55
54
54
53
53
53
53
53
52
51
51
50
48
48
48
48
47
46
46
46
46
46
45
45
44
43
43
43
42
42
